c This is the test file generate by sty
p cnf 30 74
 1 2 0
 -1 -2 0
 5 6 0
 -5 -6 0
 15 16 0
 -15 -16 0
 19 20 0
 -19 -20 0
 25 26 0
 -25 -26 0
 -1 3 0
 -3 1 0
 -2 4 0
 -4 2 0
 -15 -1 -5 7 0
 -7 15 0
 -7 1 0
 -7 5 0
 -15 -2 -5 8 0
 -8 15 0
 -8 2 0
 -8 5 0
 -16 -1 -5 9 0
 -9 16 0
 -9 1 0
 -9 5 0
 -16 -2 -5 10 0
 -10 16 0
 -10 2 0
 -10 5 0
 -15 -1 -6 11 0
 -11 15 0
 -11 1 0
 -11 6 0
 -15 -2 -6 12 0
 -12 15 0
 -12 2 0
 -12 6 0
 -16 -1 -6 13 0
 -13 16 0
 -13 1 0
 -13 6 0
 -16 -2 -6 14 0
 -14 16 0
 -14 2 0
 -14 6 0
 -15 17 0
 -17 15 0
 -16 18 0
 -18 16 0
 -5 -19 21 0
 -21 5 0
 -21 19 0
 -6 -19 22 0
 -22 6 0
 -22 19 0
 -5 -20 23 0
 -23 5 0
 -23 20 0
 -6 -20 24 0
 -24 6 0
 -24 20 0
 -5 -25 27 0
 -27 5 0
 -27 25 0
 -6 -25 28 0
 -28 6 0
 -28 25 0
 -5 -26 29 0
 -29 5 0
 -29 26 0
 -6 -26 30 0
 -30 6 0
 -30 26 0
